c WARNING: for repeatability, setting FPU to use double precision
d VARIABLES            228582       
d CONSTRAINTS          990521       
c ============================[ Problem Statistics ]=============================
c |                                                                             |
c |  Number of variables:        228582                                         |
c |  Number of clauses:          990521                                         |
c |  Parse time:                   0.14 s                                       |
c |                                                                             |
c ============================[ Search Statistics ]==============================
c | Conflicts |          ORIGINAL         |          LEARNT          | Progress |
c |           |    Vars  Clauses Literals |    Limit  Clauses Lit/Cl |          |
c ===============================================================================
c |       100 |  187521   883703  2144377 |   324024      100     20 | 17.963 % |
c |       250 |  187521   883703  2144377 |   356426      250     32 | 17.963 % |
c |       475 |  187521   883703  2144377 |   392069      475     82 | 17.963 % |
c |       812 |  187521   883703  2144377 |   431276      812     93 | 17.963 % |
c |      1318 |  187521   883703  2144377 |   474404     1318    149 | 17.963 % |
c |      2077 |  187521   883703  2144377 |   521844     2077    122 | 17.963 % |
c |      3216 |  187521   883703  2144377 |   574029     3216    142 | 17.963 % |
c |      4924 |  187517   883665  2144283 |   631431     4916    117 | 17.965 % |
c |      7486 |  187515   883654  2144257 |   694575     7474    102 | 17.966 % |
c |     11330 |  187321   882462  2141363 |   764032    10985     92 | 18.051 % |
c ===============================================================================
c restarts              : 62
c conflicts             : 14884          (2469 /sec)
c decisions             : 175178         (0.00 % random) (29059 /sec)
c propagations          : 34948628       (5797354 /sec)
c conflict literals     : 1193615        (8.56 % deleted)
d RESTARTS             62
d FAILURES             14884        
d NODES                175178       
d BACKTRACKS           175178       
d PROPAGATIONS         34948628     
d NOGOODSIZE           80.19 
d MEMORY               83.00 
d TIME                 6.02838 

s UNSATISFIABLE
